NAME : explosion
TYPE : TSP
DIMENSION : 50
EDGE_WEIGHT_TYPE : EUC_2D
NODE_COORD_SECTION
1 297603 61022
2 12247 113143
3 733224 847995
4 208877 281710
5 110485 389335
6 572199 125591
7 997255 768157
8 325944 751977
9 302013 28323
10 800703 608278
11 965158 969420
12 111120 870001
13 775965 723074
14 746337 732110
15 222091 197136
16 246838 90459
17 737126 956139
18 305836 543612
19 467497 923459
20 198153 956852
21 771004 325319
22 656534 845078
23 973310 719325
24 463148 62376
25 652673 863289
26 58723 231829
27 261299 31001
28 47435 976231
29 688838 329434
30 155460 412606
31 201803 113631
32 391665 972734
33 207690 324747
34 206603 569271
35 710946 373484
36 425730 957853
37 841010 572536
38 312391 815128
39 675795 832825
40 31605 459856
41 818199 905784
42 21388 471902
43 61300 736210
44 424998 963265
45 45960 666224
46 243051 962792
47 709439 230750
48 695024 113746
49 691260 703165
50 51210 206475
EOF
